p cnf 1355 2787
1 2 0
3 2 0
-1 -3 -2 0
2 -4 -5 0
4 -2 -5 0
5 -2 -4 0
4 2 5 0
-5 0
6 7 0
8 7 0
-6 -8 -7 0
-3 7 -9 0
3 -7 -9 0
9 -7 -3 0
3 7 9 0
-9 0
10 11 0
12 11 0
-10 -12 -11 0
-8 11 -13 0
8 -11 -13 0
13 -11 -8 0
8 11 13 0
-13 0
14 15 0
16 15 0
-14 -16 -15 0
-12 15 -17 0
12 -15 -17 0
17 -15 -12 0
12 15 17 0
-17 0
18 19 0
20 19 0
-18 -20 -19 0
-16 19 -21 0
16 -19 -21 0
21 -19 -16 0
16 19 21 0
-21 0
22 23 0
24 23 0
-22 -24 -23 0
-20 23 -25 0
20 -23 -25 0
25 -23 -20 0
20 23 25 0
-25 0
26 27 0
28 27 0
-26 -28 -27 0
-24 27 -29 0
24 -27 -29 0
29 -27 -24 0
24 27 29 0
-29 0
30 31 0
32 31 0
-30 -32 -31 0
-28 31 -33 0
28 -31 -33 0
33 -31 -28 0
28 31 33 0
-33 0
34 35 0
36 35 0
-34 -36 -35 0
-32 35 -37 0
32 -35 -37 0
37 -35 -32 0
32 35 37 0
-37 0
18 38 0
22 38 0
26 38 0
30 38 0
34 38 0
39 38 0
-40 0
-36 38 -41 0
36 -38 -41 0
41 -38 -36 0
36 38 41 0
-41 0
42 43 0
44 43 0
-42 -44 -43 0
43 -45 -46 0
45 -43 -46 0
46 -43 -45 0
45 43 46 0
-46 0
47 48 0
49 48 0
-47 -49 -48 0
-44 48 -50 0
44 -48 -50 0
50 -48 -44 0
44 48 50 0
-50 0
51 52 0
53 52 0
-51 -53 -52 0
-49 52 -54 0
49 -52 -54 0
54 -52 -49 0
49 52 54 0
-54 0
55 56 0
57 56 0
-55 -57 -56 0
-53 56 -58 0
53 -56 -58 0
58 -56 -53 0
53 56 58 0
-58 0
59 60 0
61 60 0
-59 -61 -60 0
-57 60 -62 0
57 -60 -62 0
62 -60 -57 0
57 60 62 0
-62 0
63 64 0
65 64 0
-63 -65 -64 0
-61 64 -66 0
61 -64 -66 0
66 -64 -61 0
61 64 66 0
-66 0
67 68 0
69 68 0
-67 -69 -68 0
-65 68 -70 0
65 -68 -70 0
70 -68 -65 0
65 68 70 0
-70 0
71 72 0
73 72 0
-71 -73 -72 0
-69 72 -74 0
69 -72 -74 0
74 -72 -69 0
69 72 74 0
-74 0
75 76 0
77 76 0
-75 -77 -76 0
-73 76 -78 0
73 -76 -78 0
78 -76 -73 0
73 76 78 0
-78 0
79 80 0
81 80 0
-79 -81 -80 0
-77 80 -82 0
77 -80 -82 0
82 -80 -77 0
77 80 82 0
-82 0
63 83 0
67 83 0
71 83 0
75 83 0
79 83 0
84 83 0
-85 0
-81 83 -86 0
81 -83 -86 0
86 -83 -81 0
81 83 86 0
-86 0
87 88 0
89 88 0
-87 -89 -88 0
88 -90 -91 0
90 -88 -91 0
91 -88 -90 0
90 88 91 0
-91 0
92 93 0
94 93 0
-92 -94 -93 0
-89 93 -95 0
89 -93 -95 0
95 -93 -89 0
89 93 95 0
-95 0
96 97 0
98 97 0
-96 -98 -97 0
-94 97 -99 0
94 -97 -99 0
99 -97 -94 0
94 97 99 0
-99 0
100 101 0
102 101 0
-100 -102 -101 0
-98 101 -103 0
98 -101 -103 0
103 -101 -98 0
98 101 103 0
-103 0
104 105 0
106 105 0
-104 -106 -105 0
-102 105 -107 0
102 -105 -107 0
107 -105 -102 0
102 105 107 0
-107 0
108 109 0
110 109 0
-108 -110 -109 0
-106 109 -111 0
106 -109 -111 0
111 -109 -106 0
106 109 111 0
-111 0
100 112 0
104 112 0
108 112 0
113 112 0
-114 0
-110 112 -115 0
110 -112 -115 0
115 -112 -110 0
110 112 115 0
-115 0
116 117 0
118 117 0
-116 -118 -117 0
117 -119 -120 0
119 -117 -120 0
120 -117 -119 0
119 117 120 0
-120 0
121 122 0
123 122 0
-121 -123 -122 0
-118 122 -124 0
118 -122 -124 0
124 -122 -118 0
118 122 124 0
-124 0
125 126 0
127 126 0
-125 -127 -126 0
-123 126 -128 0
123 -126 -128 0
128 -126 -123 0
123 126 128 0
-128 0
129 130 0
131 130 0
-129 -131 -130 0
-127 130 -132 0
127 -130 -132 0
132 -130 -127 0
127 130 132 0
-132 0
133 134 0
135 134 0
-133 -135 -134 0
-131 134 -136 0
131 -134 -136 0
136 -134 -131 0
131 134 136 0
-136 0
137 138 0
139 138 0
-137 -139 -138 0
-135 138 -140 0
135 -138 -140 0
140 -138 -135 0
135 138 140 0
-140 0
141 142 0
143 142 0
-141 -143 -142 0
-139 142 -144 0
139 -142 -144 0
144 -142 -139 0
139 142 144 0
-144 0
145 146 0
147 146 0
-145 -147 -146 0
-143 146 -148 0
143 -146 -148 0
148 -146 -143 0
143 146 148 0
-148 0
149 150 0
151 150 0
-149 -151 -150 0
-147 150 -152 0
147 -150 -152 0
152 -150 -147 0
147 150 152 0
-152 0
137 153 0
141 153 0
145 153 0
149 153 0
154 153 0
-155 0
-151 153 -156 0
151 -153 -156 0
156 -153 -151 0
151 153 156 0
-156 0
157 158 0
159 158 0
-157 -159 -158 0
158 -160 -161 0
160 -158 -161 0
161 -158 -160 0
160 158 161 0
-161 0
162 163 0
164 163 0
-162 -164 -163 0
-159 163 -165 0
159 -163 -165 0
165 -163 -159 0
159 163 165 0
-165 0
166 167 0
168 167 0
-166 -168 -167 0
-164 167 -169 0
164 -167 -169 0
169 -167 -164 0
164 167 169 0
-169 0
170 171 0
172 171 0
-170 -172 -171 0
-168 171 -173 0
168 -171 -173 0
173 -171 -168 0
168 171 173 0
-173 0
174 175 0
176 175 0
-174 -176 -175 0
-172 175 -177 0
172 -175 -177 0
177 -175 -172 0
172 175 177 0
-177 0
178 179 0
180 179 0
-178 -180 -179 0
-176 179 -181 0
176 -179 -181 0
181 -179 -176 0
176 179 181 0
-181 0
182 183 0
184 183 0
-182 -184 -183 0
-180 183 -185 0
180 -183 -185 0
185 -183 -180 0
180 183 185 0
-185 0
186 187 0
188 187 0
-186 -188 -187 0
-184 187 -189 0
184 -187 -189 0
189 -187 -184 0
184 187 189 0
-189 0
190 191 0
192 191 0
-190 -192 -191 0
-188 191 -193 0
188 -191 -193 0
193 -191 -188 0
188 191 193 0
-193 0
174 194 0
178 194 0
182 194 0
186 194 0
190 194 0
195 194 0
-196 0
-192 194 -197 0
192 -194 -197 0
197 -194 -192 0
192 194 197 0
-197 0
198 199 0
200 199 0
-198 -200 -199 0
199 -201 -202 0
201 -199 -202 0
202 -199 -201 0
201 199 202 0
-202 0
203 204 0
205 204 0
-203 -205 -204 0
-200 204 -206 0
200 -204 -206 0
206 -204 -200 0
200 204 206 0
-206 0
207 208 0
209 208 0
-207 -209 -208 0
-205 208 -210 0
205 -208 -210 0
210 -208 -205 0
205 208 210 0
-210 0
211 212 0
213 212 0
-211 -213 -212 0
-209 212 -214 0
209 -212 -214 0
214 -212 -209 0
209 212 214 0
-214 0
215 216 0
217 216 0
-215 -217 -216 0
-213 216 -218 0
213 -216 -218 0
218 -216 -213 0
213 216 218 0
-218 0
219 220 0
221 220 0
-219 -221 -220 0
-217 220 -222 0
217 -220 -222 0
222 -220 -217 0
217 220 222 0
-222 0
223 224 0
225 224 0
-223 -225 -224 0
-221 224 -226 0
221 -224 -226 0
226 -224 -221 0
221 224 226 0
-226 0
227 228 0
229 228 0
-227 -229 -228 0
-225 228 -230 0
225 -228 -230 0
230 -228 -225 0
225 228 230 0
-230 0
231 232 0
233 232 0
-231 -233 -232 0
-229 232 -234 0
229 -232 -234 0
234 -232 -229 0
229 232 234 0
-234 0
219 235 0
223 235 0
227 235 0
231 235 0
236 235 0
-237 0
-233 235 -238 0
233 -235 -238 0
238 -235 -233 0
233 235 238 0
-238 0
239 240 0
241 240 0
-239 -241 -240 0
240 -242 -243 0
242 -240 -243 0
243 -240 -242 0
242 240 243 0
-243 0
244 245 0
246 245 0
-244 -246 -245 0
-241 245 -247 0
241 -245 -247 0
247 -245 -241 0
241 245 247 0
-247 0
248 249 0
250 249 0
-248 -250 -249 0
-246 249 -251 0
246 -249 -251 0
251 -249 -246 0
246 249 251 0
-251 0
252 253 0
254 253 0
-252 -254 -253 0
-250 253 -255 0
250 -253 -255 0
255 -253 -250 0
250 253 255 0
-255 0
256 257 0
258 257 0
-256 -258 -257 0
-254 257 -259 0
254 -257 -259 0
259 -257 -254 0
254 257 259 0
-259 0
260 261 0
262 261 0
-260 -262 -261 0
-258 261 -263 0
258 -261 -263 0
263 -261 -258 0
258 261 263 0
-263 0
264 265 0
266 265 0
-264 -266 -265 0
-262 265 -267 0
262 -265 -267 0
267 -265 -262 0
262 265 267 0
-267 0
268 269 0
270 269 0
-268 -270 -269 0
-266 269 -271 0
266 -269 -271 0
271 -269 -266 0
266 269 271 0
-271 0
260 272 0
264 272 0
268 272 0
273 272 0
-274 0
-270 272 -275 0
270 -272 -275 0
275 -272 -270 0
270 272 275 0
-275 0
276 277 0
278 277 0
-276 -278 -277 0
277 -279 -280 0
279 -277 -280 0
280 -277 -279 0
279 277 280 0
-280 0
281 282 0
283 282 0
-281 -283 -282 0
-278 282 -284 0
278 -282 -284 0
284 -282 -278 0
278 282 284 0
-284 0
285 286 0
287 286 0
-285 -287 -286 0
-283 286 -288 0
283 -286 -288 0
288 -286 -283 0
283 286 288 0
-288 0
289 290 0
291 290 0
-289 -291 -290 0
-287 290 -292 0
287 -290 -292 0
292 -290 -287 0
287 290 292 0
-292 0
293 294 0
295 294 0
-293 -295 -294 0
-291 294 -296 0
291 -294 -296 0
296 -294 -291 0
291 294 296 0
-296 0
297 298 0
299 298 0
-297 -299 -298 0
-295 298 -300 0
295 -298 -300 0
300 -298 -295 0
295 298 300 0
-300 0
301 302 0
303 302 0
-301 -303 -302 0
-299 302 -304 0
299 -302 -304 0
304 -302 -299 0
299 302 304 0
-304 0
305 306 0
307 306 0
-305 -307 -306 0
-303 306 -308 0
303 -306 -308 0
308 -306 -303 0
303 306 308 0
-308 0
309 310 0
311 310 0
-309 -311 -310 0
-307 310 -312 0
307 -310 -312 0
312 -310 -307 0
307 310 312 0
-312 0
313 314 0
315 314 0
-313 -315 -314 0
-311 314 -316 0
311 -314 -316 0
316 -314 -311 0
311 314 316 0
-316 0
297 317 0
301 317 0
305 317 0
309 317 0
313 317 0
318 317 0
-319 0
-315 317 -320 0
315 -317 -320 0
320 -317 -315 0
315 317 320 0
-320 0
321 322 0
323 322 0
-321 -323 -322 0
322 -324 -325 0
324 -322 -325 0
325 -322 -324 0
324 322 325 0
-325 0
326 327 0
328 327 0
-326 -328 -327 0
-323 327 -329 0
323 -327 -329 0
329 -327 -323 0
323 327 329 0
-329 0
330 331 0
332 331 0
-330 -332 -331 0
-328 331 -333 0
328 -331 -333 0
333 -331 -328 0
328 331 333 0
-333 0
334 335 0
336 335 0
-334 -336 -335 0
-332 335 -337 0
332 -335 -337 0
337 -335 -332 0
332 335 337 0
-337 0
338 339 0
340 339 0
-338 -340 -339 0
-336 339 -341 0
336 -339 -341 0
341 -339 -336 0
336 339 341 0
-341 0
338 342 0
343 342 0
-338 -343 -342 0
-340 342 -344 0
340 -342 -344 0
344 -342 -340 0
340 342 344 0
-344 0
345 346 0
347 346 0
-345 -347 -346 0
346 -348 -349 0
348 -346 -349 0
349 -346 -348 0
348 346 349 0
-349 0
350 351 0
352 351 0
-350 -352 -351 0
-347 351 -353 0
347 -351 -353 0
353 -351 -347 0
347 351 353 0
-353 0
354 355 0
356 355 0
-354 -356 -355 0
-352 355 -357 0
352 -355 -357 0
357 -355 -352 0
352 355 357 0
-357 0
358 359 0
360 359 0
-358 -360 -359 0
-356 359 -361 0
356 -359 -361 0
361 -359 -356 0
356 359 361 0
-361 0
362 363 0
364 363 0
-362 -364 -363 0
-360 363 -365 0
360 -363 -365 0
365 -363 -360 0
360 363 365 0
-365 0
366 367 0
368 367 0
-366 -368 -367 0
-364 367 -369 0
364 -367 -369 0
369 -367 -364 0
364 367 369 0
-369 0
370 371 0
372 371 0
-370 -372 -371 0
-368 371 -373 0
368 -371 -373 0
373 -371 -368 0
368 371 373 0
-373 0
374 375 0
376 375 0
-374 -376 -375 0
-372 375 -377 0
372 -375 -377 0
377 -375 -372 0
372 375 377 0
-377 0
358 378 0
362 378 0
366 378 0
370 378 0
374 378 0
379 378 0
-380 0
-376 378 -381 0
376 -378 -381 0
381 -378 -376 0
376 378 381 0
-381 0
382 383 0
384 383 0
-382 -384 -383 0
-385 383 -386 0
385 -383 -386 0
386 -383 -385 0
385 383 386 0
-386 0
387 388 0
389 388 0
-387 -389 -388 0
-384 388 -390 0
384 -388 -390 0
390 -388 -384 0
384 388 390 0
-390 0
391 392 0
393 392 0
-391 -393 -392 0
-389 392 -394 0
389 -392 -394 0
394 -392 -389 0
389 392 394 0
-394 0
395 396 0
397 396 0
-395 -397 -396 0
-393 396 -398 0
393 -396 -398 0
398 -396 -393 0
393 396 398 0
-398 0
399 400 0
401 400 0
-399 -401 -400 0
-397 400 -402 0
397 -400 -402 0
402 -400 -397 0
397 400 402 0
-402 0
403 404 0
405 404 0
-403 -405 -404 0
-401 404 -406 0
401 -404 -406 0
406 -404 -401 0
401 404 406 0
-406 0
407 408 0
409 408 0
-407 -409 -408 0
-405 408 -410 0
405 -408 -410 0
410 -408 -405 0
405 408 410 0
-410 0
411 412 0
413 412 0
-411 -413 -412 0
-409 412 -414 0
409 -412 -414 0
414 -412 -409 0
409 412 414 0
-414 0
415 416 0
417 416 0
-415 -417 -416 0
-413 416 -418 0
413 -416 -418 0
418 -416 -413 0
413 416 418 0
-418 0
399 419 0
403 419 0
407 419 0
411 419 0
415 419 0
420 419 0
-421 0
-417 419 -422 0
417 -419 -422 0
422 -419 -417 0
417 419 422 0
-422 0
423 424 0
425 424 0
-423 -425 -424 0
-426 424 -427 0
426 -424 -427 0
427 -424 -426 0
426 424 427 0
-427 0
428 429 0
430 429 0
-428 -430 -429 0
-425 429 -431 0
425 -429 -431 0
431 -429 -425 0
425 429 431 0
-431 0
432 433 0
434 433 0
-432 -434 -433 0
-430 433 -435 0
430 -433 -435 0
435 -433 -430 0
430 433 435 0
-435 0
436 437 0
438 437 0
-436 -438 -437 0
-434 437 -439 0
434 -437 -439 0
439 -437 -434 0
434 437 439 0
-439 0
440 441 0
442 441 0
-440 -442 -441 0
-438 441 -443 0
438 -441 -443 0
443 -441 -438 0
438 441 443 0
-443 0
444 445 0
446 445 0
-444 -446 -445 0
-442 445 -447 0
442 -445 -447 0
447 -445 -442 0
442 445 447 0
-447 0
448 449 0
450 449 0
-448 -450 -449 0
-446 449 -451 0
446 -449 -451 0
451 -449 -446 0
446 449 451 0
-451 0
452 453 0
454 453 0
-452 -454 -453 0
-450 453 -455 0
450 -453 -455 0
455 -453 -450 0
450 453 455 0
-455 0
456 457 0
458 457 0
-456 -458 -457 0
-454 457 -459 0
454 -457 -459 0
459 -457 -454 0
454 457 459 0
-459 0
444 460 0
448 460 0
452 460 0
456 460 0
461 460 0
-462 0
-458 460 -463 0
458 -460 -463 0
463 -460 -458 0
458 460 463 0
-463 0
464 465 0
466 465 0
-464 -466 -465 0
-467 465 -468 0
467 -465 -468 0
468 -465 -467 0
467 465 468 0
-468 0
469 470 0
471 470 0
-469 -471 -470 0
-466 470 -472 0
466 -470 -472 0
472 -470 -466 0
466 470 472 0
-472 0
473 474 0
475 474 0
-473 -475 -474 0
-471 474 -476 0
471 -474 -476 0
476 -474 -471 0
471 474 476 0
-476 0
477 478 0
479 478 0
-477 -479 -478 0
-475 478 -480 0
475 -478 -480 0
480 -478 -475 0
475 478 480 0
-480 0
481 482 0
483 482 0
-481 -483 -482 0
-479 482 -484 0
479 -482 -484 0
484 -482 -479 0
479 482 484 0
-484 0
485 486 0
487 486 0
-485 -487 -486 0
-483 486 -488 0
483 -486 -488 0
488 -486 -483 0
483 486 488 0
-488 0
489 490 0
491 490 0
-489 -491 -490 0
-487 490 -492 0
487 -490 -492 0
492 -490 -487 0
487 490 492 0
-492 0
493 494 0
495 494 0
-493 -495 -494 0
-491 494 -496 0
491 -494 -496 0
496 -494 -491 0
491 494 496 0
-496 0
497 498 0
499 498 0
-497 -499 -498 0
-495 498 -500 0
495 -498 -500 0
500 -498 -495 0
495 498 500 0
-500 0
501 502 0
503 502 0
-501 -503 -502 0
-499 502 -504 0
499 -502 -504 0
504 -502 -499 0
499 502 504 0
-504 0
485 505 0
489 505 0
493 505 0
497 505 0
501 505 0
506 505 0
-507 0
-503 505 -508 0
503 -505 -508 0
508 -505 -503 0
503 505 508 0
-508 0
509 510 0
511 510 0
-509 -511 -510 0
-512 510 -513 0
512 -510 -513 0
513 -510 -512 0
512 510 513 0
-513 0
514 515 0
516 515 0
-514 -516 -515 0
-511 515 -517 0
511 -515 -517 0
517 -515 -511 0
511 515 517 0
-517 0
518 519 0
520 519 0
-518 -520 -519 0
-516 519 -521 0
516 -519 -521 0
521 -519 -516 0
516 519 521 0
-521 0
522 523 0
524 523 0
-522 -524 -523 0
-520 523 -525 0
520 -523 -525 0
525 -523 -520 0
520 523 525 0
-525 0
526 527 0
528 527 0
-526 -528 -527 0
-524 527 -529 0
524 -527 -529 0
529 -527 -524 0
524 527 529 0
-529 0
530 531 0
532 531 0
-530 -532 -531 0
-528 531 -533 0
528 -531 -533 0
533 -531 -528 0
528 531 533 0
-533 0
534 535 0
536 535 0
-534 -536 -535 0
-532 535 -537 0
532 -535 -537 0
537 -535 -532 0
532 535 537 0
-537 0
538 539 0
540 539 0
-538 -540 -539 0
-536 539 -541 0
536 -539 -541 0
541 -539 -536 0
536 539 541 0
-541 0
530 542 0
534 542 0
538 542 0
543 542 0
-544 0
-540 542 -545 0
540 -542 -545 0
545 -542 -540 0
540 542 545 0
-545 0
546 547 0
548 547 0
-546 -548 -547 0
-549 547 -550 0
549 -547 -550 0
550 -547 -549 0
549 547 550 0
-550 0
551 552 0
553 552 0
-551 -553 -552 0
-548 552 -554 0
548 -552 -554 0
554 -552 -548 0
548 552 554 0
-554 0
555 556 0
557 556 0
-555 -557 -556 0
-553 556 -558 0
553 -556 -558 0
558 -556 -553 0
553 556 558 0
-558 0
559 560 0
561 560 0
-559 -561 -560 0
-557 560 -562 0
557 -560 -562 0
562 -560 -557 0
557 560 562 0
-562 0
563 564 0
565 564 0
-563 -565 -564 0
-561 564 -566 0
561 -564 -566 0
566 -564 -561 0
561 564 566 0
-566 0
567 568 0
569 568 0
-567 -569 -568 0
-565 568 -570 0
565 -568 -570 0
570 -568 -565 0
565 568 570 0
-570 0
571 572 0
573 572 0
-571 -573 -572 0
-569 572 -574 0
569 -572 -574 0
574 -572 -569 0
569 572 574 0
-574 0
571 575 0
576 575 0
-571 -576 -575 0
-573 575 -577 0
573 -575 -577 0
577 -575 -573 0
573 575 577 0
-577 0
578 579 0
580 579 0
-578 -580 -579 0
-581 579 -582 0
581 -579 -582 0
582 -579 -581 0
581 579 582 0
-582 0
583 584 0
585 584 0
-583 -585 -584 0
-580 584 -586 0
580 -584 -586 0
586 -584 -580 0
580 584 586 0
-586 0
587 588 0
589 588 0
-587 -589 -588 0
-585 588 -590 0
585 -588 -590 0
590 -588 -585 0
585 588 590 0
-590 0
591 592 0
593 592 0
-591 -593 -592 0
-589 592 -594 0
589 -592 -594 0
594 -592 -589 0
589 592 594 0
-594 0
595 596 0
597 596 0
-595 -597 -596 0
-593 596 -598 0
593 -596 -598 0
598 -596 -593 0
593 596 598 0
-598 0
599 600 0
601 600 0
-599 -601 -600 0
-597 600 -602 0
597 -600 -602 0
602 -600 -597 0
597 600 602 0
-602 0
603 604 0
605 604 0
-603 -605 -604 0
-601 604 -606 0
601 -604 -606 0
606 -604 -601 0
601 604 606 0
-606 0
607 608 0
609 608 0
-607 -609 -608 0
-605 608 -610 0
605 -608 -610 0
610 -608 -605 0
605 608 610 0
-610 0
595 611 0
599 611 0
603 611 0
607 611 0
612 611 0
-613 0
-609 611 -614 0
609 -611 -614 0
614 -611 -609 0
609 611 614 0
-614 0
615 616 0
617 616 0
-615 -617 -616 0
-618 616 -619 0
618 -616 -619 0
619 -616 -618 0
618 616 619 0
-619 0
620 621 0
622 621 0
-620 -622 -621 0
-617 621 -623 0
617 -621 -623 0
623 -621 -617 0
617 621 623 0
-623 0
624 625 0
626 625 0
-624 -626 -625 0
-622 625 -627 0
622 -625 -627 0
627 -625 -622 0
622 625 627 0
-627 0
628 629 0
630 629 0
-628 -630 -629 0
-626 629 -631 0
626 -629 -631 0
631 -629 -626 0
626 629 631 0
-631 0
632 633 0
634 633 0
-632 -634 -633 0
-630 633 -635 0
630 -633 -635 0
635 -633 -630 0
630 633 635 0
-635 0
636 637 0
638 637 0
-636 -638 -637 0
-634 637 -639 0
634 -637 -639 0
639 -637 -634 0
634 637 639 0
-639 0
640 641 0
642 641 0
-640 -642 -641 0
-638 641 -643 0
638 -641 -643 0
643 -641 -638 0
638 641 643 0
-643 0
644 645 0
646 645 0
-644 -646 -645 0
-642 645 -647 0
642 -645 -647 0
647 -645 -642 0
642 645 647 0
-647 0
648 649 0
650 649 0
-648 -650 -649 0
-646 649 -651 0
646 -649 -651 0
651 -649 -646 0
646 649 651 0
-651 0
652 653 0
654 653 0
-652 -654 -653 0
-650 653 -655 0
650 -653 -655 0
655 -653 -650 0
650 653 655 0
-655 0
640 656 0
644 656 0
648 656 0
652 656 0
657 656 0
-658 0
-654 656 -659 0
654 -656 -659 0
659 -656 -654 0
654 656 659 0
-659 0
660 661 0
662 661 0
-660 -662 -661 0
-663 661 -664 0
663 -661 -664 0
664 -661 -663 0
663 661 664 0
-664 0
665 666 0
667 666 0
-665 -667 -666 0
-662 666 -668 0
662 -666 -668 0
668 -666 -662 0
662 666 668 0
-668 0
669 670 0
671 670 0
-669 -671 -670 0
-667 670 -672 0
667 -670 -672 0
672 -670 -667 0
667 670 672 0
-672 0
673 674 0
675 674 0
-673 -675 -674 0
-671 674 -676 0
671 -674 -676 0
676 -674 -671 0
671 674 676 0
-676 0
677 678 0
679 678 0
-677 -679 -678 0
-675 678 -680 0
675 -678 -680 0
680 -678 -675 0
675 678 680 0
-680 0
681 682 0
683 682 0
-681 -683 -682 0
-679 682 -684 0
679 -682 -684 0
684 -682 -679 0
679 682 684 0
-684 0
685 686 0
687 686 0
-685 -687 -686 0
-683 686 -688 0
683 -686 -688 0
688 -686 -683 0
683 686 688 0
-688 0
689 690 0
691 690 0
-689 -691 -690 0
-687 690 -692 0
687 -690 -692 0
692 -690 -687 0
687 690 692 0
-692 0
673 693 0
677 693 0
681 693 0
685 693 0
689 693 0
694 693 0
-695 0
-691 693 -696 0
691 -693 -696 0
696 -693 -691 0
691 693 696 0
-696 0
697 698 0
699 698 0
-697 -699 -698 0
-700 698 -701 0
700 -698 -701 0
701 -698 -700 0
700 698 701 0
-701 0
702 703 0
704 703 0
-702 -704 -703 0
-699 703 -705 0
699 -703 -705 0
705 -703 -699 0
699 703 705 0
-705 0
706 707 0
708 707 0
-706 -708 -707 0
-704 707 -709 0
704 -707 -709 0
709 -707 -704 0
704 707 709 0
-709 0
710 711 0
712 711 0
-710 -712 -711 0
-708 711 -713 0
708 -711 -713 0
713 -711 -708 0
708 711 713 0
-713 0
714 715 0
716 715 0
-714 -716 -715 0
-712 715 -717 0
712 -715 -717 0
717 -715 -712 0
712 715 717 0
-717 0
718 719 0
720 719 0
-718 -720 -719 0
-716 719 -721 0
716 -719 -721 0
721 -719 -716 0
716 719 721 0
-721 0
722 723 0
724 723 0
-722 -724 -723 0
-720 723 -725 0
720 -723 -725 0
725 -723 -720 0
720 723 725 0
-725 0
726 727 0
728 727 0
-726 -728 -727 0
-724 727 -729 0
724 -727 -729 0
729 -727 -724 0
724 727 729 0
-729 0
730 731 0
732 731 0
-730 -732 -731 0
-728 731 -733 0
728 -731 -733 0
733 -731 -728 0
728 731 733 0
-733 0
734 735 0
736 735 0
-734 -736 -735 0
-732 735 -737 0
732 -735 -737 0
737 -735 -732 0
732 735 737 0
-737 0
718 738 0
722 738 0
726 738 0
730 738 0
734 738 0
739 738 0
-740 0
-736 738 -741 0
736 -738 -741 0
741 -738 -736 0
736 738 741 0
-741 0
742 743 0
744 743 0
-742 -744 -743 0
-745 743 -746 0
745 -743 -746 0
746 -743 -745 0
745 743 746 0
-746 0
747 748 0
749 748 0
-747 -749 -748 0
-744 748 -750 0
744 -748 -750 0
750 -748 -744 0
744 748 750 0
-750 0
751 752 0
753 752 0
-751 -753 -752 0
-749 752 -754 0
749 -752 -754 0
754 -752 -749 0
749 752 754 0
-754 0
755 756 0
757 756 0
-755 -757 -756 0
-753 756 -758 0
753 -756 -758 0
758 -756 -753 0
753 756 758 0
-758 0
759 760 0
761 760 0
-759 -761 -760 0
-757 760 -762 0
757 -760 -762 0
762 -760 -757 0
757 760 762 0
-762 0
763 764 0
765 764 0
-763 -765 -764 0
-761 764 -766 0
761 -764 -766 0
766 -764 -761 0
761 764 766 0
-766 0
767 768 0
769 768 0
-767 -769 -768 0
-765 768 -770 0
765 -768 -770 0
770 -768 -765 0
765 768 770 0
-770 0
771 772 0
773 772 0
-771 -773 -772 0
-769 772 -774 0
769 -772 -774 0
774 -772 -769 0
769 772 774 0
-774 0
775 776 0
777 776 0
-775 -777 -776 0
-773 776 -778 0
773 -776 -778 0
778 -776 -773 0
773 776 778 0
-778 0
759 779 0
763 779 0
767 779 0
771 779 0
775 779 0
780 779 0
-781 0
-777 779 -782 0
777 -779 -782 0
782 -779 -777 0
777 779 782 0
-782 0
783 -784 0
785 783 0
784 -785 -783 0
1 -783 0
-1 783 0
786 -787 0
788 786 0
787 -788 -786 0
6 -786 0
-6 786 0
789 -790 0
791 789 0
790 -791 -789 0
10 -789 0
-10 789 0
792 -793 0
794 792 0
793 -794 -792 0
14 -792 0
-14 792 0
795 -796 0
797 795 0
796 -797 -795 0
18 -795 0
-18 795 0
798 -799 0
800 798 0
799 -800 -798 0
22 -798 0
-22 798 0
801 -802 0
803 801 0
802 -803 -801 0
26 -801 0
-26 801 0
804 -805 0
806 804 0
805 -806 -804 0
30 -804 0
-30 804 0
807 -808 0
809 807 0
808 -809 -807 0
34 -807 0
-34 807 0
810 -811 0
812 810 0
811 -812 -810 0
39 -810 0
-39 810 0
813 -814 0
815 813 0
814 -815 -813 0
42 -813 0
-42 813 0
816 -817 0
818 816 0
817 -818 -816 0
47 -816 0
-47 816 0
819 -820 0
821 819 0
820 -821 -819 0
51 -819 0
-51 819 0
822 -823 0
824 822 0
823 -824 -822 0
55 -822 0
-55 822 0
825 -826 0
827 825 0
826 -827 -825 0
59 -825 0
-59 825 0
828 -829 0
830 828 0
829 -830 -828 0
63 -828 0
-63 828 0
831 -832 0
833 831 0
832 -833 -831 0
67 -831 0
-67 831 0
834 -835 0
836 834 0
835 -836 -834 0
71 -834 0
-71 834 0
837 -838 0
839 837 0
838 -839 -837 0
75 -837 0
-75 837 0
840 -841 0
842 840 0
841 -842 -840 0
79 -840 0
-79 840 0
843 -844 0
845 843 0
844 -845 -843 0
84 -843 0
-84 843 0
846 -847 0
848 846 0
847 -848 -846 0
87 -846 0
-87 846 0
849 -850 0
851 849 0
850 -851 -849 0
92 -849 0
-92 849 0
852 -853 0
854 852 0
853 -854 -852 0
96 -852 0
-96 852 0
855 -856 0
857 855 0
856 -857 -855 0
100 -855 0
-100 855 0
858 -859 0
860 858 0
859 -860 -858 0
104 -858 0
-104 858 0
861 -862 0
863 861 0
862 -863 -861 0
108 -861 0
-108 861 0
864 -865 0
866 864 0
865 -866 -864 0
113 -864 0
-113 864 0
867 -868 0
869 867 0
868 -869 -867 0
116 -867 0
-116 867 0
870 -871 0
872 870 0
871 -872 -870 0
121 -870 0
-121 870 0
873 -874 0
875 873 0
874 -875 -873 0
125 -873 0
-125 873 0
876 -877 0
878 876 0
877 -878 -876 0
129 -876 0
-129 876 0
879 -880 0
881 879 0
880 -881 -879 0
133 -879 0
-133 879 0
882 -883 0
884 882 0
883 -884 -882 0
137 -882 0
-137 882 0
885 -886 0
887 885 0
886 -887 -885 0
141 -885 0
-141 885 0
888 -889 0
890 888 0
889 -890 -888 0
145 -888 0
-145 888 0
891 -892 0
893 891 0
892 -893 -891 0
149 -891 0
-149 891 0
894 -895 0
896 894 0
895 -896 -894 0
154 -894 0
-154 894 0
897 -898 0
899 897 0
898 -899 -897 0
157 -897 0
-157 897 0
900 -901 0
902 900 0
901 -902 -900 0
162 -900 0
-162 900 0
903 -904 0
905 903 0
904 -905 -903 0
166 -903 0
-166 903 0
906 -907 0
908 906 0
907 -908 -906 0
170 -906 0
-170 906 0
909 -910 0
911 909 0
910 -911 -909 0
174 -909 0
-174 909 0
912 -913 0
914 912 0
913 -914 -912 0
178 -912 0
-178 912 0
915 -916 0
917 915 0
916 -917 -915 0
182 -915 0
-182 915 0
918 -919 0
920 918 0
919 -920 -918 0
186 -918 0
-186 918 0
921 -922 0
923 921 0
922 -923 -921 0
190 -921 0
-190 921 0
924 -925 0
926 924 0
925 -926 -924 0
195 -924 0
-195 924 0
927 -928 0
929 927 0
928 -929 -927 0
198 -927 0
-198 927 0
930 -931 0
932 930 0
931 -932 -930 0
203 -930 0
-203 930 0
933 -934 0
935 933 0
934 -935 -933 0
207 -933 0
-207 933 0
936 -937 0
938 936 0
937 -938 -936 0
211 -936 0
-211 936 0
939 -940 0
941 939 0
940 -941 -939 0
215 -939 0
-215 939 0
942 -943 0
944 942 0
943 -944 -942 0
219 -942 0
-219 942 0
945 -946 0
947 945 0
946 -947 -945 0
223 -945 0
-223 945 0
948 -949 0
950 948 0
949 -950 -948 0
227 -948 0
-227 948 0
951 -952 0
953 951 0
952 -953 -951 0
231 -951 0
-231 951 0
954 -955 0
956 954 0
955 -956 -954 0
236 -954 0
-236 954 0
957 -958 0
959 957 0
958 -959 -957 0
239 -957 0
-239 957 0
960 -961 0
962 960 0
961 -962 -960 0
244 -960 0
-244 960 0
963 -964 0
965 963 0
964 -965 -963 0
248 -963 0
-248 963 0
966 -967 0
968 966 0
967 -968 -966 0
252 -966 0
-252 966 0
969 -970 0
971 969 0
970 -971 -969 0
256 -969 0
-256 969 0
972 -973 0
974 972 0
973 -974 -972 0
260 -972 0
-260 972 0
975 -976 0
977 975 0
976 -977 -975 0
264 -975 0
-264 975 0
978 -979 0
980 978 0
979 -980 -978 0
268 -978 0
-268 978 0
981 -982 0
983 981 0
982 -983 -981 0
273 -981 0
-273 981 0
984 -985 0
986 984 0
985 -986 -984 0
276 -984 0
-276 984 0
987 -988 0
989 987 0
988 -989 -987 0
281 -987 0
-281 987 0
990 -991 0
992 990 0
991 -992 -990 0
285 -990 0
-285 990 0
993 -994 0
995 993 0
994 -995 -993 0
289 -993 0
-289 993 0
996 -997 0
998 996 0
997 -998 -996 0
293 -996 0
-293 996 0
999 -1000 0
1001 999 0
1000 -1001 -999 0
297 -999 0
-297 999 0
1002 -1003 0
1004 1002 0
1003 -1004 -1002 0
301 -1002 0
-301 1002 0
1005 -1006 0
1007 1005 0
1006 -1007 -1005 0
305 -1005 0
-305 1005 0
1008 -1009 0
1010 1008 0
1009 -1010 -1008 0
309 -1008 0
-309 1008 0
1011 -1012 0
1013 1011 0
1012 -1013 -1011 0
313 -1011 0
-313 1011 0
1014 -1015 0
1016 1014 0
1015 -1016 -1014 0
318 -1014 0
-318 1014 0
1017 -1018 0
1019 1017 0
1018 -1019 -1017 0
321 -1017 0
-321 1017 0
1020 -1021 0
1022 1020 0
1021 -1022 -1020 0
326 -1020 0
-326 1020 0
1023 -1024 0
1025 1023 0
1024 -1025 -1023 0
330 -1023 0
-330 1023 0
1026 -1027 0
1028 1026 0
1027 -1028 -1026 0
334 -1026 0
-334 1026 0
1029 -1030 0
1031 1029 0
1030 -1031 -1029 0
338 -1029 0
-338 1029 0
1032 -1033 0
1034 1032 0
1033 -1034 -1032 0
343 -1032 0
-343 1032 0
1035 -1036 0
1037 1035 0
1036 -1037 -1035 0
345 -1035 0
-345 1035 0
1038 -1039 0
1040 1038 0
1039 -1040 -1038 0
350 -1038 0
-350 1038 0
1041 -1042 0
1043 1041 0
1042 -1043 -1041 0
354 -1041 0
-354 1041 0
1044 -1045 0
1046 1044 0
1045 -1046 -1044 0
358 -1044 0
-358 1044 0
1047 -1048 0
1049 1047 0
1048 -1049 -1047 0
362 -1047 0
-362 1047 0
1050 -1051 0
1052 1050 0
1051 -1052 -1050 0
366 -1050 0
-366 1050 0
1053 -1054 0
1055 1053 0
1054 -1055 -1053 0
370 -1053 0
-370 1053 0
1056 -1057 0
1058 1056 0
1057 -1058 -1056 0
374 -1056 0
-374 1056 0
1059 -1060 0
1061 1059 0
1060 -1061 -1059 0
379 -1059 0
-379 1059 0
1062 -1063 0
1064 1062 0
1063 -1064 -1062 0
382 -1062 0
-382 1062 0
1065 -1066 0
1067 1065 0
1066 -1067 -1065 0
387 -1065 0
-387 1065 0
1068 -1069 0
1070 1068 0
1069 -1070 -1068 0
391 -1068 0
-391 1068 0
1071 -1072 0
1073 1071 0
1072 -1073 -1071 0
395 -1071 0
-395 1071 0
1074 -1075 0
1076 1074 0
1075 -1076 -1074 0
399 -1074 0
-399 1074 0
1077 -1078 0
1079 1077 0
1078 -1079 -1077 0
403 -1077 0
-403 1077 0
1080 -1081 0
1082 1080 0
1081 -1082 -1080 0
407 -1080 0
-407 1080 0
1083 -1084 0
1085 1083 0
1084 -1085 -1083 0
411 -1083 0
-411 1083 0
1086 -1087 0
1088 1086 0
1087 -1088 -1086 0
415 -1086 0
-415 1086 0
1089 -1090 0
1091 1089 0
1090 -1091 -1089 0
420 -1089 0
-420 1089 0
1092 -1093 0
1094 1092 0
1093 -1094 -1092 0
423 -1092 0
-423 1092 0
1095 -1096 0
1097 1095 0
1096 -1097 -1095 0
428 -1095 0
-428 1095 0
1098 -1099 0
1100 1098 0
1099 -1100 -1098 0
432 -1098 0
-432 1098 0
1101 -1102 0
1103 1101 0
1102 -1103 -1101 0
436 -1101 0
-436 1101 0
1104 -1105 0
1106 1104 0
1105 -1106 -1104 0
440 -1104 0
-440 1104 0
1107 -1108 0
1109 1107 0
1108 -1109 -1107 0
444 -1107 0
-444 1107 0
1110 -1111 0
1112 1110 0
1111 -1112 -1110 0
448 -1110 0
-448 1110 0
1113 -1114 0
1115 1113 0
1114 -1115 -1113 0
452 -1113 0
-452 1113 0
1116 -1117 0
1118 1116 0
1117 -1118 -1116 0
456 -1116 0
-456 1116 0
1119 -1120 0
1121 1119 0
1120 -1121 -1119 0
461 -1119 0
-461 1119 0
1122 -1123 0
1124 1122 0
1123 -1124 -1122 0
464 -1122 0
-464 1122 0
1125 -1126 0
1127 1125 0
1126 -1127 -1125 0
469 -1125 0
-469 1125 0
1128 -1129 0
1130 1128 0
1129 -1130 -1128 0
473 -1128 0
-473 1128 0
1131 -1132 0
1133 1131 0
1132 -1133 -1131 0
477 -1131 0
-477 1131 0
1134 -1135 0
1136 1134 0
1135 -1136 -1134 0
481 -1134 0
-481 1134 0
1137 -1138 0
1139 1137 0
1138 -1139 -1137 0
485 -1137 0
-485 1137 0
1140 -1141 0
1142 1140 0
1141 -1142 -1140 0
489 -1140 0
-489 1140 0
1143 -1144 0
1145 1143 0
1144 -1145 -1143 0
493 -1143 0
-493 1143 0
1146 -1147 0
1148 1146 0
1147 -1148 -1146 0
497 -1146 0
-497 1146 0
1149 -1150 0
1151 1149 0
1150 -1151 -1149 0
501 -1149 0
-501 1149 0
1152 -1153 0
1154 1152 0
1153 -1154 -1152 0
506 -1152 0
-506 1152 0
1155 -1156 0
1157 1155 0
1156 -1157 -1155 0
509 -1155 0
-509 1155 0
1158 -1159 0
1160 1158 0
1159 -1160 -1158 0
514 -1158 0
-514 1158 0
1161 -1162 0
1163 1161 0
1162 -1163 -1161 0
518 -1161 0
-518 1161 0
1164 -1165 0
1166 1164 0
1165 -1166 -1164 0
522 -1164 0
-522 1164 0
1167 -1168 0
1169 1167 0
1168 -1169 -1167 0
526 -1167 0
-526 1167 0
1170 -1171 0
1172 1170 0
1171 -1172 -1170 0
530 -1170 0
-530 1170 0
1173 -1174 0
1175 1173 0
1174 -1175 -1173 0
534 -1173 0
-534 1173 0
1176 -1177 0
1178 1176 0
1177 -1178 -1176 0
538 -1176 0
-538 1176 0
1179 -1180 0
1181 1179 0
1180 -1181 -1179 0
543 -1179 0
-543 1179 0
1182 -1183 0
1184 1182 0
1183 -1184 -1182 0
546 -1182 0
-546 1182 0
1185 -1186 0
1187 1185 0
1186 -1187 -1185 0
551 -1185 0
-551 1185 0
1188 -1189 0
1190 1188 0
1189 -1190 -1188 0
555 -1188 0
-555 1188 0
1191 -1192 0
1193 1191 0
1192 -1193 -1191 0
559 -1191 0
-559 1191 0
1194 -1195 0
1196 1194 0
1195 -1196 -1194 0
563 -1194 0
-563 1194 0
1197 -1198 0
1199 1197 0
1198 -1199 -1197 0
567 -1197 0
-567 1197 0
1200 -1201 0
1202 1200 0
1201 -1202 -1200 0
571 -1200 0
-571 1200 0
1203 -1204 0
1205 1203 0
1204 -1205 -1203 0
576 -1203 0
-576 1203 0
1206 -1207 0
1208 1206 0
1207 -1208 -1206 0
578 -1206 0
-578 1206 0
1209 -1210 0
1211 1209 0
1210 -1211 -1209 0
583 -1209 0
-583 1209 0
1212 -1213 0
1214 1212 0
1213 -1214 -1212 0
587 -1212 0
-587 1212 0
1215 -1216 0
1217 1215 0
1216 -1217 -1215 0
591 -1215 0
-591 1215 0
1218 -1219 0
1220 1218 0
1219 -1220 -1218 0
595 -1218 0
-595 1218 0
1221 -1222 0
1223 1221 0
1222 -1223 -1221 0
599 -1221 0
-599 1221 0
1224 -1225 0
1226 1224 0
1225 -1226 -1224 0
603 -1224 0
-603 1224 0
1227 -1228 0
1229 1227 0
1228 -1229 -1227 0
607 -1227 0
-607 1227 0
1230 -1231 0
1232 1230 0
1231 -1232 -1230 0
612 -1230 0
-612 1230 0
1233 -1234 0
1235 1233 0
1234 -1235 -1233 0
615 -1233 0
-615 1233 0
1236 -1237 0
1238 1236 0
1237 -1238 -1236 0
620 -1236 0
-620 1236 0
1239 -1240 0
1241 1239 0
1240 -1241 -1239 0
624 -1239 0
-624 1239 0
1242 -1243 0
1244 1242 0
1243 -1244 -1242 0
628 -1242 0
-628 1242 0
1245 -1246 0
1247 1245 0
1246 -1247 -1245 0
632 -1245 0
-632 1245 0
1248 -1249 0
1250 1248 0
1249 -1250 -1248 0
636 -1248 0
-636 1248 0
1251 -1252 0
1253 1251 0
1252 -1253 -1251 0
640 -1251 0
-640 1251 0
1254 -1255 0
1256 1254 0
1255 -1256 -1254 0
644 -1254 0
-644 1254 0
1257 -1258 0
1259 1257 0
1258 -1259 -1257 0
648 -1257 0
-648 1257 0
1260 -1261 0
1262 1260 0
1261 -1262 -1260 0
652 -1260 0
-652 1260 0
1263 -1264 0
1265 1263 0
1264 -1265 -1263 0
657 -1263 0
-657 1263 0
1266 -1267 0
1268 1266 0
1267 -1268 -1266 0
660 -1266 0
-660 1266 0
1269 -1270 0
1271 1269 0
1270 -1271 -1269 0
665 -1269 0
-665 1269 0
1272 -1273 0
1274 1272 0
1273 -1274 -1272 0
669 -1272 0
-669 1272 0
1275 -1276 0
1277 1275 0
1276 -1277 -1275 0
673 -1275 0
-673 1275 0
1278 -1279 0
1280 1278 0
1279 -1280 -1278 0
677 -1278 0
-677 1278 0
1281 -1282 0
1283 1281 0
1282 -1283 -1281 0
681 -1281 0
-681 1281 0
1284 -1285 0
1286 1284 0
1285 -1286 -1284 0
685 -1284 0
-685 1284 0
1287 -1288 0
1289 1287 0
1288 -1289 -1287 0
689 -1287 0
-689 1287 0
1290 -1291 0
1292 1290 0
1291 -1292 -1290 0
694 -1290 0
-694 1290 0
1293 -1294 0
1295 1293 0
1294 -1295 -1293 0
697 -1293 0
-697 1293 0
1296 -1297 0
1298 1296 0
1297 -1298 -1296 0
702 -1296 0
-702 1296 0
1299 -1300 0
1301 1299 0
1300 -1301 -1299 0
706 -1299 0
-706 1299 0
1302 -1303 0
1304 1302 0
1303 -1304 -1302 0
710 -1302 0
-710 1302 0
1305 -1306 0
1307 1305 0
1306 -1307 -1305 0
714 -1305 0
-714 1305 0
1308 -1309 0
1310 1308 0
1309 -1310 -1308 0
718 -1308 0
-718 1308 0
1311 -1312 0
1313 1311 0
1312 -1313 -1311 0
722 -1311 0
-722 1311 0
1314 -1315 0
1316 1314 0
1315 -1316 -1314 0
726 -1314 0
-726 1314 0
1317 -1318 0
1319 1317 0
1318 -1319 -1317 0
730 -1317 0
-730 1317 0
1320 -1321 0
1322 1320 0
1321 -1322 -1320 0
734 -1320 0
-734 1320 0
1323 -1324 0
1325 1323 0
1324 -1325 -1323 0
739 -1323 0
-739 1323 0
1326 -1327 0
1328 1326 0
1327 -1328 -1326 0
742 -1326 0
-742 1326 0
1329 -1330 0
1331 1329 0
1330 -1331 -1329 0
747 -1329 0
-747 1329 0
1332 -1333 0
1334 1332 0
1333 -1334 -1332 0
751 -1332 0
-751 1332 0
1335 -1336 0
1337 1335 0
1336 -1337 -1335 0
755 -1335 0
-755 1335 0
1338 -1339 0
1340 1338 0
1339 -1340 -1338 0
759 -1338 0
-759 1338 0
1341 -1342 0
1343 1341 0
1342 -1343 -1341 0
763 -1341 0
-763 1341 0
1344 -1345 0
1346 1344 0
1345 -1346 -1344 0
767 -1344 0
-767 1344 0
1347 -1348 0
1349 1347 0
1348 -1349 -1347 0
771 -1347 0
-771 1347 0
1350 -1351 0
1352 1350 0
1351 -1352 -1350 0
775 -1350 0
-775 1350 0
1353 -1354 0
1355 1353 0
1354 -1355 -1353 0
780 -1353 0
-780 1353 0
-785 0
-788 0
-791 0
794 0
-797 0
800 0
803 0
806 0
809 0
-812 0
-815 0
-818 0
-821 0
-824 0
827 0
830 0
833 0
-836 0
-839 0
-842 0
-845 0
-848 0
-851 0
-854 0
857 0
-860 0
863 0
866 0
-869 0
-872 0
875 0
-878 0
-881 0
-884 0
-887 0
-890 0
893 0
896 0
-899 0
-902 0
-905 0
908 0
911 0
-914 0
917 0
-920 0
-923 0
-926 0
-929 0
-932 0
935 0
938 0
941 0
-944 0
947 0
-950 0
-953 0
-956 0
-959 0
962 0
-965 0
-968 0
971 0
974 0
977 0
980 0
-983 0
986 0
-989 0
992 0
995 0
998 0
1001 0
1004 0
1007 0
1010 0
-1013 0
-1016 0
-1019 0
-1022 0
-1025 0
-1028 0
1031 0
-1034 0
1037 0
-1040 0
1043 0
-1046 0
1049 0
-1052 0
1055 0
-1058 0
-1061 0
1064 0
-1067 0
1070 0
-1073 0
-1076 0
1079 0
1082 0
1085 0
1088 0
-1091 0
1094 0
-1097 0
-1100 0
-1103 0
1106 0
-1109 0
-1112 0
1115 0
-1118 0
1121 0
1124 0
1127 0
1130 0
1133 0
-1136 0
1139 0
1142 0
1145 0
1148 0
-1151 0
1154 0
-1157 0
1160 0
1163 0
1166 0
1169 0
-1172 0
1175 0
1178 0
-1181 0
-1184 0
-1187 0
1190 0
-1193 0
1196 0
-1199 0
-1202 0
1205 0
1208 0
1211 0
1214 0
1217 0
-1220 0
-1223 0
-1226 0
1229 0
-1232 0
-1235 0
1238 0
1241 0
1244 0
1247 0
-1250 0
1253 0
1256 0
1259 0
1262 0
1265 0
-1268 0
-1271 0
1274 0
-1277 0
1280 0
-1283 0
1286 0
-1289 0
-1292 0
1295 0
-1298 0
-1301 0
1304 0
1307 0
-1310 0
-1313 0
-1316 0
1319 0
-1322 0
-1325 0
-1328 0
1331 0
1334 0
-1337 0
-1340 0
1343 0
1346 0
-1349 0
-1352 0
1355 0
4 0
45 0
90 0
119 0
160 0
201 0
242 0
279 0
324 0
348 0
-385 0
-426 0
-467 0
-512 0
-549 0
-581 0
-618 0
-663 0
-700 0
-745 0
796 -1015 0
1015 -796 0
799 -1000 0
1000 -799 0
802 -1003 0
1003 -802 0
805 -1006 0
1006 -805 0
808 -1009 0
1009 -808 0
811 -1012 0
1012 -811 0
856 -979 0
979 -856 0
859 -982 0
982 -859 0
862 -973 0
973 -862 0
865 -976 0
976 -865 0
910 -1048 0
1048 -910 0
913 -1051 0
1051 -913 0
916 -1054 0
1054 -916 0
919 -1057 0
1057 -919 0
922 -1060 0
1060 -922 0
925 -1045 0
1045 -925 0
